p edge 98 152
e 1 71
e 1 89
e 2 58
e 2 50
e 2 62
e 2 59
e 2 33
e 2 91
e 3 43
e 3 54
e 3 89
e 4 36
e 4 44
e 5 85
e 6 80
e 6 82
e 6 83
e 6 18
e 7 44
e 7 38
e 7 46
e 7 47
e 7 67
e 8 67
e 8 93
e 9 38
e 10 46
e 10 77
e 10 98
e 11 45
e 11 75
e 11 72
e 11 88
e 11 90
e 12 36
e 12 37
e 12 74
e 13 36
e 13 41
e 14 53
e 14 67
e 14 70
e 15 50
e 15 20
e 15 35
e 15 75
e 15 76
e 15 82
e 15 73
e 16 39
e 16 96
e 17 46
e 17 39
e 17 40
e 17 52
e 17 54
e 18 51
e 18 97
e 19 40
e 19 69
e 19 83
e 19 24
e 20 48
e 20 49
e 21 53
e 21 77
e 22 48
e 22 41
e 22 67
e 22 69
e 22 66
e 22 75
e 22 92
e 23 41
e 23 51
e 24 49
e 24 64
e 24 54
e 24 41
e 25 41
e 25 83
e 26 63
e 26 60
e 26 59
e 26 81
e 26 96
e 27 55
e 27 42
e 28 61
e 28 62
e 28 60
e 28 42
e 29 53
e 29 56
e 29 72
e 30 67
e 30 78
e 30 90
e 31 57
e 32 34
e 32 44
e 32 95
e 32 89
e 33 63
e 33 65
e 33 57
e 33 66
e 33 83
e 33 54
e 34 56
e 37 70
e 37 85
e 38 93
e 39 76
e 40 96
e 40 97
e 41 67
e 41 84
e 42 82
e 43 75
e 45 64
e 46 83
e 46 85
e 47 77
e 47 73
e 50 86
e 50 94
e 53 75
e 55 74
e 55 75
e 55 79
e 56 94
e 56 69
e 57 73
e 58 80
e 60 87
e 62 73
e 62 74
e 66 95
e 68 78
e 68 88
e 69 81
e 69 90
e 70 79
e 71 91
e 73 87
e 75 86
e 77 96
e 77 98
e 79 92
e 86 94
e 87 98
l 10
t 5 88
